num_stuff = 100;
num_bins = 100;
stuff = [157, 250, 154, 152, 242, 145, 132, 200, 126, 120, 176, 146, 160,
       157, 211, 155, 230, 192, 152, 104, 158,  83,  10, 199, 134,  47,
       189, 188,  96, 200, 203, 156, 249,  68, 157, 171, 146, 136, 158,
       194, 253, 153,  84, 140, 184, 150, 176, 124, 134, 179, 147, 149,
       184, 137, 157, 123,  29, 165, 109,  95, 173, 116,  54, 213, 141,
       160, 121, 229,  85,  72, 121, 198, 136, 189, 206, 155, 113, 104,
       269, 125, 213, 155, 186, 159, 197,  18,  72, 189, 219, 115, 131,
       268, 174, 115, 176, 155,  88, 120, 126, 212]; 
bin_capacity = 500;